min: c;

c = 3.67235762947983 * u5_t4_h2 + 3.67235762947983 * u5_t7_h2 + 3.07730694076836 * u5_t4_h3 + 3.07730694076836 * u5_t7_h3 + 2.76747191145808 * u5_t1_h4 + 2.76747191145808 * u5_t3_h4 + 2.76747191145808 * u5_t4_h4 + 2.76747191145808 * u5_t7_h4 + 3.3611924999809 * u5_t1_h5 + 3.3611924999809 * u5_t3_h5 + 3.3611924999809 * u5_t4_h5 + 3.3611924999809 * u5_t7_h5 + 4.3524724566648 * u5_t1_h6 + 4.3524724566648 * u5_t3_h6 + 4.3524724566648 * u5_t4_h6 + 4.3524724566648 * u5_t6_h6 + 4.3524724566648 * u5_t7_h6 + 3.73244539169483 * u5_t1_h7 + 3.73244539169483 * u5_t3_h7 + 3.73244539169483 * u5_t4_h7 + 3.73244539169483 * u5_t6_h7 + 4.98584124072826 * u5_t1_h8 + 4.98584124072826 * u5_t3_h8 + 4.98584124072826 * u5_t4_h8 + 4.98584124072826 * u5_t6_h8 + 4.96937860716815 * u5_t1_h9 + 4.96937860716815 * u5_t3_h9 + 4.96937860716815 * u5_t4_h9 + 4.96937860716815 * u5_t6_h9 + 5.78065640298759 * u5_t1_h10 + 5.78065640298759 * u5_t3_h10 + 5.78065640298759 * u5_t4_h10 + 5.78065640298759 * u5_t6_h10 + 4.02895342668424 * u5_t1_h11 + 4.02895342668424 * u5_t3_h11 + 4.02895342668424 * u5_t4_h11 + 4.02895342668424 * u5_t6_h11 + 6.1746601851145 * u5_t1_h12 + 6.1746601851145 * u5_t3_h12 + 6.1746601851145 * u5_t4_h12 + 6.1746601851145 * u5_t6_h12 + 4.06345088539609 * u5_t1_h13 + 4.06345088539609 * u5_t3_h13 + 4.06345088539609 * u5_t4_h13 + 4.06345088539609 * u5_t6_h13 + 4.06345088539609 * u5_t8_h13 + 5.88204301333634 * u5_t1_h14 + 5.88204301333634 * u5_t3_h14 + 5.88204301333634 * u5_t4_h14 + 5.88204301333634 * u5_t6_h14 + 5.88204301333634 * u5_t8_h14 + 6.50955342053143 * u5_t1_h15 + 6.50955342053143 * u5_t3_h15 + 6.50955342053143 * u5_t4_h15 + 6.50955342053143 * u5_t6_h15 + 6.50955342053143 * u5_t8_h15 + 6.50955342053143 * u5_t9_h15 + 6.23455879581818 * u5_t1_h16 + 6.23455879581818 * u5_t3_h16 + 6.23455879581818 * u5_t4_h16 + 6.23455879581818 * u5_t5_h16 + 6.23455879581818 * u5_t6_h16 + 6.23455879581818 * u5_t8_h16 + 6.23455879581818 * u5_t9_h16 + 6.36749647355515 * u5_t1_h17 + 6.36749647355515 * u5_t5_h17 + 6.36749647355515 * u5_t6_h17 + 6.36749647355515 * u5_t8_h17 + 6.36749647355515 * u5_t9_h17 + 6.36749647355515 * u5_t10_h17 + 6.4590681783966 * u5_t1_h18 + 6.4590681783966 * u5_t2_h18 + 6.4590681783966 * u5_t5_h18 + 6.4590681783966 * u5_t6_h18 + 6.4590681783966 * u5_t9_h18 + 6.4590681783966 * u5_t10_h18 + 5.15934275392619 * u5_t1_h19 + 5.15934275392619 * u5_t2_h19 + 5.15934275392619 * u5_t5_h19 + 5.15934275392619 * u5_t9_h19 + 5.15934275392619 * u5_t10_h19 + 5.90186708463117 * u5_t1_h20 + 5.90186708463117 * u5_t2_h20 + 5.90186708463117 * u5_t5_h20 + 5.90186708463117 * u5_t9_h20 + 5.90186708463117 * u5_t10_h20 + 5.71613145453629 * u5_t2_h21 + 5.71613145453629 * u5_t5_h21 + 5.71613145453629 * u5_t9_h21 + 5.71613145453629 * u5_t10_h21 + 6.04541410148484 * u5_t2_h22 + 6.04541410148484 * u5_t5_h22 + 6.04541410148484 * u5_t9_h22 + 6.04541410148484 * u5_t10_h22 + 5.73832398386535 * u5_t5_h23 + 5.73832398386535 * u5_t9_h23 + 5.73832398386535 * u5_t10_h23;
0 <= u5_t1_h4 <= 1;
0 <= u5_t1_h5 <= 1;
0 <= u5_t1_h6 <= 1;
0 <= u5_t1_h7 <= 1;
0 <= u5_t1_h8 <= 1;
0 <= u5_t1_h9 <= 1;
0 <= u5_t1_h10 <= 1;
0 <= u5_t1_h11 <= 1;
0 <= u5_t1_h12 <= 1;
0 <= u5_t1_h13 <= 1;
0 <= u5_t1_h14 <= 1;
0 <= u5_t1_h15 <= 1;
0 <= u5_t1_h16 <= 1;
0 <= u5_t1_h17 <= 1;
0 <= u5_t1_h18 <= 1;
0 <= u5_t1_h19 <= 1;
0 <= u5_t1_h20 <= 1;
u5_t1_h4 + u5_t1_h5 + u5_t1_h6 + u5_t1_h7 + u5_t1_h8 + u5_t1_h9 + u5_t1_h10 + u5_t1_h11 + u5_t1_h12 + u5_t1_h13 + u5_t1_h14 + u5_t1_h15 + u5_t1_h16 + u5_t1_h17 + u5_t1_h18 + u5_t1_h19 + u5_t1_h20 = 1;
0 <= u5_t2_h18 <= 1;
0 <= u5_t2_h19 <= 1;
0 <= u5_t2_h20 <= 1;
0 <= u5_t2_h21 <= 1;
0 <= u5_t2_h22 <= 1;
u5_t2_h18 + u5_t2_h19 + u5_t2_h20 + u5_t2_h21 + u5_t2_h22 = 3;
0 <= u5_t3_h4 <= 1;
0 <= u5_t3_h5 <= 1;
0 <= u5_t3_h6 <= 1;
0 <= u5_t3_h7 <= 1;
0 <= u5_t3_h8 <= 1;
0 <= u5_t3_h9 <= 1;
0 <= u5_t3_h10 <= 1;
0 <= u5_t3_h11 <= 1;
0 <= u5_t3_h12 <= 1;
0 <= u5_t3_h13 <= 1;
0 <= u5_t3_h14 <= 1;
0 <= u5_t3_h15 <= 1;
0 <= u5_t3_h16 <= 1;
u5_t3_h4 + u5_t3_h5 + u5_t3_h6 + u5_t3_h7 + u5_t3_h8 + u5_t3_h9 + u5_t3_h10 + u5_t3_h11 + u5_t3_h12 + u5_t3_h13 + u5_t3_h14 + u5_t3_h15 + u5_t3_h16 = 1;
0 <= u5_t4_h2 <= 1;
0 <= u5_t4_h3 <= 1;
0 <= u5_t4_h4 <= 1;
0 <= u5_t4_h5 <= 1;
0 <= u5_t4_h6 <= 1;
0 <= u5_t4_h7 <= 1;
0 <= u5_t4_h8 <= 1;
0 <= u5_t4_h9 <= 1;
0 <= u5_t4_h10 <= 1;
0 <= u5_t4_h11 <= 1;
0 <= u5_t4_h12 <= 1;
0 <= u5_t4_h13 <= 1;
0 <= u5_t4_h14 <= 1;
0 <= u5_t4_h15 <= 1;
0 <= u5_t4_h16 <= 1;
u5_t4_h2 + u5_t4_h3 + u5_t4_h4 + u5_t4_h5 + u5_t4_h6 + u5_t4_h7 + u5_t4_h8 + u5_t4_h9 + u5_t4_h10 + u5_t4_h11 + u5_t4_h12 + u5_t4_h13 + u5_t4_h14 + u5_t4_h15 + u5_t4_h16 = 3;
0 <= u5_t5_h16 <= 1;
0 <= u5_t5_h17 <= 1;
0 <= u5_t5_h18 <= 1;
0 <= u5_t5_h19 <= 1;
0 <= u5_t5_h20 <= 1;
0 <= u5_t5_h21 <= 1;
0 <= u5_t5_h22 <= 1;
0 <= u5_t5_h23 <= 1;
u5_t5_h16 + u5_t5_h17 + u5_t5_h18 + u5_t5_h19 + u5_t5_h20 + u5_t5_h21 + u5_t5_h22 + u5_t5_h23 = 2;
0 <= u5_t6_h6 <= 1;
0 <= u5_t6_h7 <= 1;
0 <= u5_t6_h8 <= 1;
0 <= u5_t6_h9 <= 1;
0 <= u5_t6_h10 <= 1;
0 <= u5_t6_h11 <= 1;
0 <= u5_t6_h12 <= 1;
0 <= u5_t6_h13 <= 1;
0 <= u5_t6_h14 <= 1;
0 <= u5_t6_h15 <= 1;
0 <= u5_t6_h16 <= 1;
0 <= u5_t6_h17 <= 1;
0 <= u5_t6_h18 <= 1;
u5_t6_h6 + u5_t6_h7 + u5_t6_h8 + u5_t6_h9 + u5_t6_h10 + u5_t6_h11 + u5_t6_h12 + u5_t6_h13 + u5_t6_h14 + u5_t6_h15 + u5_t6_h16 + u5_t6_h17 + u5_t6_h18 = 2;
0 <= u5_t7_h2 <= 1;
0 <= u5_t7_h3 <= 1;
0 <= u5_t7_h4 <= 1;
0 <= u5_t7_h5 <= 1;
0 <= u5_t7_h6 <= 1;
u5_t7_h2 + u5_t7_h3 + u5_t7_h4 + u5_t7_h5 + u5_t7_h6 = 1;
0 <= u5_t8_h13 <= 1;
0 <= u5_t8_h14 <= 1;
0 <= u5_t8_h15 <= 1;
0 <= u5_t8_h16 <= 1;
0 <= u5_t8_h17 <= 1;
u5_t8_h13 + u5_t8_h14 + u5_t8_h15 + u5_t8_h16 + u5_t8_h17 = 3;
0 <= u5_t9_h15 <= 1;
0 <= u5_t9_h16 <= 1;
0 <= u5_t9_h17 <= 1;
0 <= u5_t9_h18 <= 1;
0 <= u5_t9_h19 <= 1;
0 <= u5_t9_h20 <= 1;
0 <= u5_t9_h21 <= 1;
0 <= u5_t9_h22 <= 1;
0 <= u5_t9_h23 <= 1;
u5_t9_h15 + u5_t9_h16 + u5_t9_h17 + u5_t9_h18 + u5_t9_h19 + u5_t9_h20 + u5_t9_h21 + u5_t9_h22 + u5_t9_h23 = 1;
0 <= u5_t10_h17 <= 1;
0 <= u5_t10_h18 <= 1;
0 <= u5_t10_h19 <= 1;
0 <= u5_t10_h20 <= 1;
0 <= u5_t10_h21 <= 1;
0 <= u5_t10_h22 <= 1;
0 <= u5_t10_h23 <= 1;
u5_t10_h17 + u5_t10_h18 + u5_t10_h19 + u5_t10_h20 + u5_t10_h21 + u5_t10_h22 + u5_t10_h23 = 1;
